91891618925199155197615289246186196427394281697219915273971642839245469155463746924546851937246737618934527328469146797342528964254379642519843452895434288552528951618925437921981376197318618373155826573846719284373944376627374387319643736446462491376723767225585821864923755821859137921685821946821955821685822585582159492159492159492449294259149371838642864837192564182956428372567314685911386495821468673119864921196765821159586492145956731185685911298567311865867311865867311856867311868567311856859111959583712658673145956731769118838641583864